10
10
1010003
0
0
87 14 23 37 75 69 73 95 48 79 
1
0
88 19 17 33 75 75 75 97 47 83 
2
0
81 13 23 37 74 79 76 98 52 76 
3
0
87 17 25 37 74 71 75 92 46 78 
4
0
86 19 17 35 73 73 75 92 52 79 
5
0
83 11 23 29 64 76 72 97 47 73 
6
0
85 19 23 27 70 74 71 89 51 75 
7
0
86 18 25 35 74 72 72 95 50 77 
8
0
88 10 20 29 72 75 75 98 44 83 
9
0
84 14 20 34 72 79 74 90 44 77 
